# Objective value = 95600
x66 0
x67 0
x68 1
x69 0
x70 1
x71 1
x72 1
x73 0
x74 0
x75 0
x76 0
x77 1
x78 1
x79 1
x80 0
x81 0
x82 1
x83 1
x84 1
x85 0
x86 1
x87 1
x88 0
x89 0
x90 0
x91 1
x92 0
x93 0
x94 0
x95 1
x96 1
x97 1
x98 0
x99 1
x100 1
x101 0
x102 1
x103 0
x104 0
x105 0
x106 1
x107 0
x108 0
x109 1
x110 0
x111 0
x112 1
x113 1
x114 1
x115 0
x116 1
x117 1
x118 0
x119 1
x120 0
x121 0
x122 1
x123 1
x124 1
x125 0
x126 1
x127 1
x128 0
x129 1
x130 0
x131 1
x132 0
x133 1
x134 1
x135 1
x136 0
x137 1
x138 1
x139 0
x140 1
x141 0
x142 1
x143 1
x144 0
x145 1
x146 1
x147 1
x148 0
x149 1
x150 1
x151 0
x152 1
x153 0
x154 1
x155 1
x156 1
x157 1
x158 0
x159 0
x160 0
x161 1
x162 0
x163 0
x164 1
x165 0
x166 1
x167 0
x168 0
x169 0
x170 0
x171 0
x172 1
x173 1
x174 1
x175 0
x176 1
x177 1
x178 0
x179 1
x180 0
x181 1
x182 1
x183 1
x184 1
x185 0
x186 0
x187 1
x188 1
x189 1
x190 0
x191 1
x192 1
x193 0
x194 1
x195 0
x196 1
x197 1
x198 1
x199 1
x200 0
x201 1
x202 1
x203 0
x204 0
x205 0
x206 1
x207 1
x208 0
x209 0
x210 1
x211 1
x212 1
x213 0
x214 1
x215 0
x216 0
x217 0
x218 1
x219 1
x220 1
x221 0
x222 1
x223 1
x224 0
x225 1
x226 0
x227 1
x228 1
x229 1
x230 0
x231 1
x232 1
x233 0
x234 1
x235 1
x236 0
x237 1
x238 1
x239 0
x240 1
x241 0
x242 1
x243 0
x244 1
x245 1
x246 1
x247 1
x248 0
x249 0
x250 1
x251 0
x252 0
x253 1
x254 1
x255 0
x256 0
x257 0
x258 0
x259 0
x260 1
x261 1
x262 0
x263 1
x264 1
x265 1
x266 0
x267 1
x268 1
x269 1
x270 1
x271 0
x272 0
x273 1
x274 1
x275 0
x276 1
x277 1
x278 1
x279 0
x280 1
x281 1
x282 1
x283 1
x284 0
x285 1
x286 0
x287 1
x288 1
x289 0
x290 1
x291 1
x292 1
x293 0
x294 1
x295 1
x296 1
x297 1
x298 0
x299 1
x300 1
x301 0
x302 1
x303 1
x304 0
x305 1
x306 1
x307 1
x308 0
x309 1
x310 1
x311 1
x312 1
x313 0
x314 1
x315 1
x316 1
x317 0
x318 1
x319 0
x320 0
x321 1
x322 1
x323 1
x324 0
x325 1
x326 1
x327 1
x328 1
x329 0
x330 1
x331 1
x332 1
x333 1
x334 1
x335 1
x336 0
x337 1
x338 0
x339 0
x340 0
x341 1
x342 0
x343 0
x344 0
x345 0
x346 1
x347 0
x348 0
x349 0
x350 0
x351 0
x352 0
x353 1
x354 1
x355 1
x356 0
x357 1
x358 1
x359 0
x360 1
x361 1
x362 1
x363 1
x364 0
x365 1
x366 1
x367 1
x368 1
x369 1
x370 0
x371 0
x372 1
x373 1
x374 1
x375 0
x376 1
x377 1
x378 0
x379 1
x380 1
x381 1
x382 1
x383 0
x384 1
x385 1
x386 1
x387 1
x388 1
x389 0
x390 1
x391 1
x392 0
x393 1
x394 0
x395 1
x396 0
x397 0
x398 1
x399 0
x400 0
x401 0
x402 0
x403 1
x404 0
x405 0
x406 0
x407 0
x408 0
x409 1
x410 0
x411 0
x412 0
x413 0
x414 1
x415 1
x416 0
x417 1
x418 1
x419 0
x420 1
x421 1
x422 1
x423 1
x424 0
x425 1
x426 1
x427 1
x428 1
x429 1
x430 0
x431 1
x432 1
x433 0
x434 0
x435 1
x436 1
x437 1
x438 0
x439 1
x440 0
x441 1
x442 1
x443 1
x444 1
x445 1
x446 0
x447 0
x448 0
x449 1
x450 0
x451 1
x452 0
x453 0
x454 0
x455 1
x456 0
x457 0
x458 1
x459 1
x460 1
x461 0
x462 0
x463 0
x464 1
x465 1
x466 1
x467 1
x468 1
x469 0
x470 0
x471 1
x472 1
x473 1
x474 0
x475 1
x476 0
x477 1
x478 1
x479 1
x480 1
x481 1
x482 0
x483 1
x484 0
x485 1
x486 1
x487 1
x488 0
x489 1
x490 0
x491 1
x492 0
x493 1
x494 1
x495 1
x496 0
x497 1
x498 1
x499 0
x500 1
x501 1
x502 1
x503 0
x504 1
x505 1
x506 1
x507 0
x508 1
x509 1
x510 1
x511 0
x512 1
x513 1
x514 1
x515 0
x516 1
x517 1
x518 1
x519 0
x520 1
x521 1
x522 1
x523 0
x524 1
x525 1
x526 1
x527 0
x528 1
x529 1
x530 1
x531 1
x532 1
x533 1
x534 0
x535 0
x536 1
x537 0
x538 0
x539 0
x540 1
x541 0
x542 0
x543 0
x544 1
x545 0
x546 0
x547 0
x548 0
x549 0
x550 0
x551 0
x552 1
x553 1
x554 1
x555 1
x556 1
x557 1
x558 1
x559 0
x560 1
x561 1
x562 0
x563 1
x564 1
x565 1
x566 1
x567 1
x568 0
x569 0
x570 0
x571 1
x572 1
x573 1
x574 0
x575 1
x576 1
x577 1
x578 0
x579 1
x580 1
x581 0
x582 1
x583 1
x584 1
x585 1
x586 1
x587 0
x588 1
x589 1
x590 1
x591 0
x592 0
x593 0
x594 0
x595 0
x596 0
x597 0
x598 1
x599 1
x600 0
x601 1
x602 0
x603 0
x604 0
x605 0
x606 0
x607 1
x608 0
x609 0
x610 0
x611 0
x612 1
x613 1
x614 1
x615 1
x616 1
x617 1
x618 1
x619 0
x620 1
x621 1
x622 0
x623 1
x624 1
x625 1
x626 1
x627 1
x628 0
x629 1
x630 1
x631 0
x632 1
x633 1
x634 0
x635 1
x636 0
x637 0
x638 0
x639 0
x640 0
x641 1
x642 0
x643 0
x644 1
x645 0
x646 0
x647 0
x648 0
x649 0
x650 1
x651 0
x652 0
x653 1
x654 0
x655 0
x656 1
x657 1
x658 0
x659 1
x660 1
x661 1
x662 1
x663 1
x664 0
x665 1
x666 1
x667 0
x668 1
x669 1
x670 1
x671 1
x672 1
x673 0
x674 1
x675 1
x676 0
x677 1
x678 0
x679 0
x680 1
x681 1
x682 0
x683 1
x684 1
x685 1
x686 1
x687 1
x688 0
x689 1
x690 1
x691 0
x692 1
x693 1
x694 1
x695 1
x696 1
x697 0
x698 1
x699 1
x700 0
x701 1
x702 0
x703 1
x704 0
x705 1
x706 1
x707 0
x708 1
x709 1
x710 0
x711 1
x712 1
x713 0
x714 1
x715 1
x716 0
x717 1
x718 1
x719 1
x720 1
x721 1
x722 0
x723 1
x724 1
x725 0
x726 1
x727 0
x728 1
x729 1
x730 0
x731 1
x732 1
x733 1
x734 0
x735 1
x736 0
x737 1
x738 1
x739 1
x740 1
x741 1
x742 0
x743 1
x744 1
x745 1
x746 0
x747 0
x748 1
x749 1
x750 1
x751 0
x752 1
x753 0
x754 1
x755 1
x756 1
x757 0
x758 1
x759 0
x760 1
x761 1
x762 1
x763 1
x764 1
x765 1
x766 0
x767 0
x768 0
x769 1
x770 1
x771 1
x772 0
x773 0
x774 0
x775 0
x776 0
x777 1
x778 0
x779 0
x780 1
x781 0
x782 0
x783 0
x784 0
x785 1
x786 1
x787 1
x788 0
x789 1
x790 0
x791 1
x792 1
x793 1
x794 1
x795 1
x796 0
x797 1
x798 1
x799 1
x800 1
x801 1
x802 1
x803 0
x804 1
x805 0
x806 0
x807 0
x808 1
x809 0
x810 1
x811 0
x812 1
x813 0
x814 0
x815 0
x816 0
x817 0
x818 1
x819 0
x820 1
x821 0
x822 0
x823 1
x824 0
x825 0
x826 1
x827 1
x828 1
x829 0
x830 1
x831 1
x832 1
x833 0
x834 1
x835 1
x836 1
x837 1
x838 1
x839 0
x840 1
x841 1
x842 1
x843 1
x844 0
x845 1
x846 0
x847 0
x848 1
x849 1
x850 1
x851 0
x852 1
x853 1
x854 1
x855 0
x856 1
x857 1
x858 1
x859 1
x860 1
x861 0
x862 0
x863 1
x864 1
x865 1
x866 0
x867 1
x868 0
x869 1
x870 0
x871 0
x872 1
x873 1
x874 0
x875 1
x876 1
x877 1
x878 0
x879 1
x880 1
x881 1
x882 1
x883 1
x884 0
x885 1
x886 1
x887 1
x888 1
x889 0
x890 1
x891 0
x892 1
x893 1
x894 0
x895 0
x896 1
x897 1
x898 1
x899 1
x900 1
x901 1
x902 1
x903 0
x904 1
x905 1
x906 1
x907 1
x908 1
x909 0
x910 1
x911 1
x912 1
x913 0
x914 1
x915 0
x916 1
x917 1
x918 1
x919 1
x920 1
x921 0
x922 0
x923 0
x924 1
x925 0
x926 0
x927 0
x928 1
x929 0
x930 1
x931 0
x932 0
x933 0
x934 1
x935 0
x936 0
x937 0
x938 1
x939 0
x940 1
x941 0
x942 0
x943 0
x944 0
x945 0
x946 0
x947 1
x948 1
x949 1
x950 1
x951 1
x952 1
x953 1
x954 0
x955 0
x956 1
x957 1
x958 1
x959 1
x960 0
x961 1
x962 1
x963 1
x964 0
x965 1
x966 0
x967 1
x968 1
x969 1
x970 1
x971 0
x972 0
x973 0
x974 1
x975 1
x976 1
x977 1
x978 1
x979 1
x980 1
x981 0
x982 1
x983 1
x984 0
x985 1
x986 1
x987 0
x988 1
x989 1
x990 1
x991 0
x992 1
x993 0
x994 1
x995 1
x996 1
x997 1
x998 0
x999 1
x1000 0
x1001 0
x1002 1
x1003 0
x1004 1
x1005 1
x1006 1
x1007 1
x1008 1
x1009 0
x1010 1
x1011 1
x1012 1
x1013 0
x1014 1
x1015 1
x1016 1
x1017 1
x1018 1
x1019 0
x1020 1
x1021 0
x1022 1
x1023 1
x1024 1
x1025 1
x1026 0
x1027 1
x1028 1
x1029 0
x1030 1
x1031 1
x1032 0
x1033 1
x1034 1
x1035 1
x1036 1
x1037 1
x1038 0
x1039 1
x1040 0
x1041 1
x1042 0
x1043 1
x1044 1
x1045 1
x1046 1
x1047 1
x1048 0
x1049 1
x1050 0
x1051 1
x1052 1
x1053 1
x1054 1
x1055 0
x1056 1
x1057 1
x1058 1
x1059 0
x1060 1
x1061 1
x1062 0
x1063 1
x1064 1
x1065 1
x1066 1
x1067 1
x1068 0
x1069 1
x1070 1
x1071 1
x1072 0
x1073 1
x1074 1
x1075 1
x1076 1
x1077 1
x1078 0
x1079 1
x1080 0
x1081 1
x1082 1
x1083 1
x1084 1
x1085 0
x1086 1
x1087 1
x1088 1
x1089 1
x1090 1
x1091 0
x1092 0
x1093 1
x1094 0
x1095 0
x1096 1
x1097 0
x1098 0
x1099 1
x1100 0
x1101 0
x1102 1
x1103 1
x1104 0
x1105 0
x1106 0
x1107 0
x1108 0
x1109 1
x1110 0
x1111 1
x1112 0
x1113 0
x1114 0
x1115 0
x1116 1
x1117 0
x1118 0
x1119 0
x1120 0
x1121 0
x1 1
x2 0
x3 0
x4 0
x5 1
x6 0
x7 0
x8 1
x9 0
x10 1
x11 0
x12 0
x13 0
x14 0
x15 1
x16 0
x17 0
x18 1
x19 0
x20 0
x21 0
x22 0
x23 1
x24 0
x25 0
x26 0
x27 0
x28 0
x29 1
x30 0
x31 0
x32 1
x33 0
x34 0
x35 1
x36 0
x37 0
x38 0
x39 0
x40 0
x41 1
x42 0
x43 0
x44 1
x45 0
x46 1
x47 0
x48 0
x49 0
x50 0
x51 0
x52 1
x53 0
x54 1
x55 0
x56 0
x57 0
x58 0
x59 1
x60 0
x61 0
x62 0
x63 0
x64 0
x65 1
